(set-info :Origin "This instance was generated by: BanditFuzz-- an RL fuzzer for SMT solvers" )
(set-info :Author "Joe Scott, Fed Mora, Vijay Ganesh" )
(set-info :Contact "Joe Scott, joseph.scott@uwaterloo.ca")
(set-logic QF_BV)
(declare-const bool_0 Bool)
(declare-const bool_1 Bool)
(declare-const bool_2 Bool)
(declare-const bool_3 Bool)
(declare-const bool_4 Bool)
(declare-const bv_0 (_ BitVec 32))
(declare-const bv_1 (_ BitVec 32))
(declare-const bv_2 (_ BitVec 32))
(declare-const bv_3 (_ BitVec 32))
(declare-const bv_4 (_ BitVec 32))
(assert (bvsgt (bvnand (bvsdiv #xc46485c6  #xb2eb2434 ) (bvshl bv_4 bv_4)) (bvshl (bvudiv bv_2 #xa4ad3129 ) (bvlshr #x4f7048c3  #x0b7276b7 ))))
(assert (bvsle (bvsub (bvshl #x036fbdfa  #xf8a1f47e ) (bvnand bv_3 #x2d965b8c )) (bvxor (bvnor #x7ad0c576  #xfc7ac050 ) (bvudiv bv_0 #x9d604c13 ))))
(assert (bvsgt (bvsrem (bvsmod bv_3 #x319bd47b ) (bvnor #xab8f3df1  #xb1395f9b )) (bvsdiv (bvurem #xcd9aa070  bv_0) (bvsmod bv_1 #x0b244bf8 ))))
(assert (bvule (bvshl (bvshl bv_3 bv_4) (bvxnor #xa3cbb99e  #x20b5f9ae )) (bvshl (bvmul #x5cda6ebb  #xcaf1c0af ) (bvmul bv_3 bv_4))))
(assert (not (bvule (bvxnor bv_4 bv_3) (bvor bv_0 #xcfe6f212 ))))
(check-sat)
(exit)
